Solutions/MP-43.sol
# Solution for model Master Problem
# Objective value = 5.8466768557631212e+02
theta[1] 0
theta[2] 0
theta[3] 0
theta[4] 0
theta[5] 0
theta[6] 1
theta[7] 0
theta[8] 0
theta[9] 0
theta[10] 0
theta[11] 0
theta[12] 0
theta[13] 0
theta[14] 0
theta[15] 0
theta[16] 0
theta[17] 0
theta[18] 1
theta[19] 0
theta[20] 0
theta[21] 1
theta[22] 0
theta[23] 0
theta[24] 0
theta[25] 0
theta[26] 0
theta[27] 0
theta[28] 0
theta[29] 1
theta[30] 0
theta[31] 0
theta[32] 0
theta[33] 0
theta[34] 1
theta[35] 0
theta[36] 0
theta[37] 1
theta[38] 0
theta[39] 1
theta[40] 0
theta[41] 0
theta[42] 0
theta[43] 0
